48
-1 null 0 0.0 0.0 0.0
1 1 0 6734.0 1453.0 0.0
2 1 0 2233.0 10.0 0.0
3 1 0 5530.0 1424.0 0.0
4 1 0 401.0 841.0 0.0
5 1 0 3082.0 1644.0 0.0
6 1 0 7608.0 4458.0 0.0
7 1 0 7573.0 3716.0 0.0
8 1 0 7265.0 1268.0 0.0
9 1 0 6898.0 1885.0 0.0
10 1 0 1112.0 2049.0 0.0
11 1 0 5468.0 2606.0 0.0
12 1 0 5989.0 2873.0 0.0
13 1 0 4706.0 2674.0 0.0
14 1 0 4612.0 2035.0 0.0
15 1 0 6347.0 2683.0 0.0
16 1 0 6107.0 669.0 0.0
17 1 0 7611.0 5184.0 0.0
18 1 0 7462.0 3590.0 0.0
19 1 0 7732.0 4723.0 0.0
20 1 0 5900.0 3561.0 0.0
21 1 0 4483.0 3369.0 0.0
22 1 0 6101.0 1110.0 0.0
23 1 0 5199.0 2182.0 0.0
24 1 0 1633.0 2809.0 0.0
25 1 0 4307.0 2322.0 0.0
26 1 0 675.0 1006.0 0.0
27 1 0 7555.0 4819.0 0.0
28 1 0 7541.0 3981.0 0.0
29 1 0 3177.0 756.0 0.0
30 1 0 7352.0 4506.0 0.0
31 1 0 7545.0 2801.0 0.0
32 1 0 3245.0 3305.0 0.0
33 1 0 6426.0 3173.0 0.0
34 1 0 4608.0 1198.0 0.0
35 1 0 23.0 2216.0 0.0
36 1 0 7248.0 3779.0 0.0
37 1 0 7762.0 4595.0 0.0
38 1 0 7392.0 2244.0 0.0
39 1 0 3484.0 2829.0 0.0
40 1 0 6271.0 2135.0 0.0
41 1 0 4985.0 140.0 0.0
42 1 0 1916.0 1569.0 0.0
43 1 0 7280.0 4899.0 0.0
44 1 0 7509.0 3239.0 0.0
45 1 0 10.0 2676.0 0.0
46 1 0 6807.0 2993.0 0.0
47 1 0 5185.0 3258.0 0.0
48 1 0 3023.0 1942.0 0.0
